10J3M/DAT/10J3MNNR-10.dat
10 3
25.386 24.0963
24.149 30.6239
32.2344 47.0707
25.9146 36.4508
24.7984 28.5639
29.9619 0.5337
24.0611 11.8625
11.4878 18.1799
33.6328 44.6335
23.9955 24.7776
266.7928