10J3M/SOL/10J3MNNR-10.sol
solution status: optimal solution found
objective value:                     85.2071666666667
x#1#3                                               1 	(obj:0)
x#2#2                                               1 	(obj:0)
x#3#1                              0.0736831873195509 	(obj:0)
x#3#3                               0.926316812680449 	(obj:0)
x#4#1                                               1 	(obj:0)
x#5#1                                 0.4757094543734 	(obj:0)
x#5#2                               0.524290545626599 	(obj:0)
x#6#3                                               1 	(obj:0)
x#7#2                                               1 	(obj:0)
x#8#1                                               1 	(obj:0)
x#9#1                                               1 	(obj:0)
x#10#2                                              1 	(obj:0)
z                                    85.2071666666667 	(obj:1)
